
  22    0


   0  11 2 3 4 5 6 7 8 18 19 20 21 
   8   5 17 16 11 10 9 
   1   4 12 11 10 9 
   6   3 15 14 13 
   5   2 14 13 
   1   2 12 9 
   4   2 11 9 
   7   1 10 
   1   1 22
  10   1 22
   1   1 22
   4   1 22
   8   1 22
   7   1 22
   3   1 22
   8   1 22
   6   1 22
   5   1 22
   4   1 22
   6   1 22
   6   1 22
   0   0 
